g9 1 1 0 0 20170614 0 4 0 240	# problem deconvu
 51 0 1 0 0	# vars, constraints, objectives, ranges, eqns
 0 1	# nonlinear constraints, objectives
 0 0	# network constraints: nonlinear, linear
 0 51 0	# nonlinear vars in constraints, objectives, both
 0 0 0 1	# linear network variables; functions; arith, flags
 0 0 0 0 0	# discrete variables: binary, integer, nonlinear (b,c,o)
 0 51	# nonzeros in Jacobian, gradients
 0 0	# max name lengths: constraints, variables
 0 0 0 0 385	# common exprs: b,c,o,c1,o1
b
3
3
3
3
3
3
3
3
3
3
3
3
3
3
3
3
3
3
3
3
3
3
3
3
3
3
3
3
3
3
3
3
3
3
3
3
3
3
3
3
3
3
3
3
3
3
3
3
3
3
3
x51
0 0
1 0
2 0
3 0
4 0
5 0
6 0
7 0
8 0
9 0
10 0
11 0
12 0
13 0
14 0
15 0
16 0
17 0
18 0
19 0
20 0
21 0
22 0
23 0
24 0
25 0
26 0
27 0
28 0
29 0
30 0
31 0
32 0
33 0
34 0
35 0
36 0
37 0
38 0
39 0
40 0.01
41 0.02
42 0.4
43 0.6
44 0.8
45 3
46 0.8
47 0.6
48 0.44
49 0.01
50 0.01
V51 0 1
o2
v40
v0
V52 0 1
o2
v40
v1
V53 0 1
o2
v41
v0
V54 0 1
o2
v40
v2
V55 0 1
o2
v41
v1
V56 0 1
o2
v42
v0
V57 0 1
o2
v40
v3
V58 0 1
o2
v41
v2
V59 0 1
o2
v42
v1
V60 0 1
o2
v43
v0
V61 0 1
o2
v40
v4
V62 0 1
o2
v41
v3
V63 0 1
o2
v42
v2
V64 0 1
o2
v43
v1
V65 0 1
o2
v44
v0
V66 0 1
o2
v40
v5
V67 0 1
o2
v41
v4
V68 0 1
o2
v42
v3
V69 0 1
o2
v43
v2
V70 0 1
o2
v44
v1
V71 0 1
o2
v45
v0
V72 0 1
o2
v40
v6
V73 0 1
o2
v41
v5
V74 0 1
o2
v42
v4
V75 0 1
o2
v43
v3
V76 0 1
o2
v44
v2
V77 0 1
o2
v45
v1
V78 0 1
o2
v46
v0
V79 0 1
o2
v40
v7
V80 0 1
o2
v41
v6
V81 0 1
o2
v42
v5
V82 0 1
o2
v43
v4
V83 0 1
o2
v44
v3
V84 0 1
o2
v45
v2
V85 0 1
o2
v46
v1
V86 0 1
o2
v47
v0
V87 0 1
o2
v40
v8
V88 0 1
o2
v41
v7
V89 0 1
o2
v42
v6
V90 0 1
o2
v43
v5
V91 0 1
o2
v44
v4
V92 0 1
o2
v45
v3
V93 0 1
o2
v46
v2
V94 0 1
o2
v47
v1
V95 0 1
o2
v48
v0
V96 0 1
o2
v40
v9
V97 0 1
o2
v41
v8
V98 0 1
o2
v42
v7
V99 0 1
o2
v43
v6
V100 0 1
o2
v44
v5
V101 0 1
o2
v45
v4
V102 0 1
o2
v46
v3
V103 0 1
o2
v47
v2
V104 0 1
o2
v48
v1
V105 0 1
o2
v49
v0
V106 0 1
o2
v40
v10
V107 0 1
o2
v41
v9
V108 0 1
o2
v42
v8
V109 0 1
o2
v43
v7
V110 0 1
o2
v44
v6
V111 0 1
o2
v45
v5
V112 0 1
o2
v46
v4
V113 0 1
o2
v47
v3
V114 0 1
o2
v48
v2
V115 0 1
o2
v49
v1
V116 0 1
o2
v50
v0
V117 0 1
o2
v40
v11
V118 0 1
o2
v41
v10
V119 0 1
o2
v42
v9
V120 0 1
o2
v43
v8
V121 0 1
o2
v44
v7
V122 0 1
o2
v45
v6
V123 0 1
o2
v46
v5
V124 0 1
o2
v47
v4
V125 0 1
o2
v48
v3
V126 0 1
o2
v49
v2
V127 0 1
o2
v50
v1
V128 0 1
o2
v40
v12
V129 0 1
o2
v41
v11
V130 0 1
o2
v42
v10
V131 0 1
o2
v43
v9
V132 0 1
o2
v44
v8
V133 0 1
o2
v45
v7
V134 0 1
o2
v46
v6
V135 0 1
o2
v47
v5
V136 0 1
o2
v48
v4
V137 0 1
o2
v49
v3
V138 0 1
o2
v50
v2
V139 0 1
o2
v40
v13
V140 0 1
o2
v41
v12
V141 0 1
o2
v42
v11
V142 0 1
o2
v43
v10
V143 0 1
o2
v44
v9
V144 0 1
o2
v45
v8
V145 0 1
o2
v46
v7
V146 0 1
o2
v47
v6
V147 0 1
o2
v48
v5
V148 0 1
o2
v49
v4
V149 0 1
o2
v50
v3
V150 0 1
o2
v40
v14
V151 0 1
o2
v41
v13
V152 0 1
o2
v42
v12
V153 0 1
o2
v43
v11
V154 0 1
o2
v44
v10
V155 0 1
o2
v45
v9
V156 0 1
o2
v46
v8
V157 0 1
o2
v47
v7
V158 0 1
o2
v48
v6
V159 0 1
o2
v49
v5
V160 0 1
o2
v50
v4
V161 0 1
o2
v40
v15
V162 0 1
o2
v41
v14
V163 0 1
o2
v42
v13
V164 0 1
o2
v43
v12
V165 0 1
o2
v44
v11
V166 0 1
o2
v45
v10
V167 0 1
o2
v46
v9
V168 0 1
o2
v47
v8
V169 0 1
o2
v48
v7
V170 0 1
o2
v49
v6
V171 0 1
o2
v50
v5
V172 0 1
o2
v40
v16
V173 0 1
o2
v41
v15
V174 0 1
o2
v42
v14
V175 0 1
o2
v43
v13
V176 0 1
o2
v44
v12
V177 0 1
o2
v45
v11
V178 0 1
o2
v46
v10
V179 0 1
o2
v47
v9
V180 0 1
o2
v48
v8
V181 0 1
o2
v49
v7
V182 0 1
o2
v50
v6
V183 0 1
o2
v40
v17
V184 0 1
o2
v41
v16
V185 0 1
o2
v42
v15
V186 0 1
o2
v43
v14
V187 0 1
o2
v44
v13
V188 0 1
o2
v45
v12
V189 0 1
o2
v46
v11
V190 0 1
o2
v47
v10
V191 0 1
o2
v48
v9
V192 0 1
o2
v49
v8
V193 0 1
o2
v50
v7
V194 0 1
o2
v40
v18
V195 0 1
o2
v41
v17
V196 0 1
o2
v42
v16
V197 0 1
o2
v43
v15
V198 0 1
o2
v44
v14
V199 0 1
o2
v45
v13
V200 0 1
o2
v46
v12
V201 0 1
o2
v47
v11
V202 0 1
o2
v48
v10
V203 0 1
o2
v49
v9
V204 0 1
o2
v50
v8
V205 0 1
o2
v40
v19
V206 0 1
o2
v41
v18
V207 0 1
o2
v42
v17
V208 0 1
o2
v43
v16
V209 0 1
o2
v44
v15
V210 0 1
o2
v45
v14
V211 0 1
o2
v46
v13
V212 0 1
o2
v47
v12
V213 0 1
o2
v48
v11
V214 0 1
o2
v49
v10
V215 0 1
o2
v50
v9
V216 0 1
o2
v40
v20
V217 0 1
o2
v41
v19
V218 0 1
o2
v42
v18
V219 0 1
o2
v43
v17
V220 0 1
o2
v44
v16
V221 0 1
o2
v45
v15
V222 0 1
o2
v46
v14
V223 0 1
o2
v47
v13
V224 0 1
o2
v48
v12
V225 0 1
o2
v49
v11
V226 0 1
o2
v50
v10
V227 0 1
o2
v40
v21
V228 0 1
o2
v41
v20
V229 0 1
o2
v42
v19
V230 0 1
o2
v43
v18
V231 0 1
o2
v44
v17
V232 0 1
o2
v45
v16
V233 0 1
o2
v46
v15
V234 0 1
o2
v47
v14
V235 0 1
o2
v48
v13
V236 0 1
o2
v49
v12
V237 0 1
o2
v50
v11
V238 0 1
o2
v40
v22
V239 0 1
o2
v41
v21
V240 0 1
o2
v42
v20
V241 0 1
o2
v43
v19
V242 0 1
o2
v44
v18
V243 0 1
o2
v45
v17
V244 0 1
o2
v46
v16
V245 0 1
o2
v47
v15
V246 0 1
o2
v48
v14
V247 0 1
o2
v49
v13
V248 0 1
o2
v50
v12
V249 0 1
o2
v40
v23
V250 0 1
o2
v41
v22
V251 0 1
o2
v42
v21
V252 0 1
o2
v43
v20
V253 0 1
o2
v44
v19
V254 0 1
o2
v45
v18
V255 0 1
o2
v46
v17
V256 0 1
o2
v47
v16
V257 0 1
o2
v48
v15
V258 0 1
o2
v49
v14
V259 0 1
o2
v50
v13
V260 0 1
o2
v40
v24
V261 0 1
o2
v41
v23
V262 0 1
o2
v42
v22
V263 0 1
o2
v43
v21
V264 0 1
o2
v44
v20
V265 0 1
o2
v45
v19
V266 0 1
o2
v46
v18
V267 0 1
o2
v47
v17
V268 0 1
o2
v48
v16
V269 0 1
o2
v49
v15
V270 0 1
o2
v50
v14
V271 0 1
o2
v40
v25
V272 0 1
o2
v41
v24
V273 0 1
o2
v42
v23
V274 0 1
o2
v43
v22
V275 0 1
o2
v44
v21
V276 0 1
o2
v45
v20
V277 0 1
o2
v46
v19
V278 0 1
o2
v47
v18
V279 0 1
o2
v48
v17
V280 0 1
o2
v49
v16
V281 0 1
o2
v50
v15
V282 0 1
o2
v40
v26
V283 0 1
o2
v41
v25
V284 0 1
o2
v42
v24
V285 0 1
o2
v43
v23
V286 0 1
o2
v44
v22
V287 0 1
o2
v45
v21
V288 0 1
o2
v46
v20
V289 0 1
o2
v47
v19
V290 0 1
o2
v48
v18
V291 0 1
o2
v49
v17
V292 0 1
o2
v50
v16
V293 0 1
o2
v40
v27
V294 0 1
o2
v41
v26
V295 0 1
o2
v42
v25
V296 0 1
o2
v43
v24
V297 0 1
o2
v44
v23
V298 0 1
o2
v45
v22
V299 0 1
o2
v46
v21
V300 0 1
o2
v47
v20
V301 0 1
o2
v48
v19
V302 0 1
o2
v49
v18
V303 0 1
o2
v50
v17
V304 0 1
o2
v40
v28
V305 0 1
o2
v41
v27
V306 0 1
o2
v42
v26
V307 0 1
o2
v43
v25
V308 0 1
o2
v44
v24
V309 0 1
o2
v45
v23
V310 0 1
o2
v46
v22
V311 0 1
o2
v47
v21
V312 0 1
o2
v48
v20
V313 0 1
o2
v49
v19
V314 0 1
o2
v50
v18
V315 0 1
o2
v40
v29
V316 0 1
o2
v41
v28
V317 0 1
o2
v42
v27
V318 0 1
o2
v43
v26
V319 0 1
o2
v44
v25
V320 0 1
o2
v45
v24
V321 0 1
o2
v46
v23
V322 0 1
o2
v47
v22
V323 0 1
o2
v48
v21
V324 0 1
o2
v49
v20
V325 0 1
o2
v50
v19
V326 0 1
o2
v40
v30
V327 0 1
o2
v41
v29
V328 0 1
o2
v42
v28
V329 0 1
o2
v43
v27
V330 0 1
o2
v44
v26
V331 0 1
o2
v45
v25
V332 0 1
o2
v46
v24
V333 0 1
o2
v47
v23
V334 0 1
o2
v48
v22
V335 0 1
o2
v49
v21
V336 0 1
o2
v50
v20
V337 0 1
o2
v40
v31
V338 0 1
o2
v41
v30
V339 0 1
o2
v42
v29
V340 0 1
o2
v43
v28
V341 0 1
o2
v44
v27
V342 0 1
o2
v45
v26
V343 0 1
o2
v46
v25
V344 0 1
o2
v47
v24
V345 0 1
o2
v48
v23
V346 0 1
o2
v49
v22
V347 0 1
o2
v50
v21
V348 0 1
o2
v40
v32
V349 0 1
o2
v41
v31
V350 0 1
o2
v42
v30
V351 0 1
o2
v43
v29
V352 0 1
o2
v44
v28
V353 0 1
o2
v45
v27
V354 0 1
o2
v46
v26
V355 0 1
o2
v47
v25
V356 0 1
o2
v48
v24
V357 0 1
o2
v49
v23
V358 0 1
o2
v50
v22
V359 0 1
o2
v40
v33
V360 0 1
o2
v41
v32
V361 0 1
o2
v42
v31
V362 0 1
o2
v43
v30
V363 0 1
o2
v44
v29
V364 0 1
o2
v45
v28
V365 0 1
o2
v46
v27
V366 0 1
o2
v47
v26
V367 0 1
o2
v48
v25
V368 0 1
o2
v49
v24
V369 0 1
o2
v50
v23
V370 0 1
o2
v40
v34
V371 0 1
o2
v41
v33
V372 0 1
o2
v42
v32
V373 0 1
o2
v43
v31
V374 0 1
o2
v44
v30
V375 0 1
o2
v45
v29
V376 0 1
o2
v46
v28
V377 0 1
o2
v47
v27
V378 0 1
o2
v48
v26
V379 0 1
o2
v49
v25
V380 0 1
o2
v50
v24
V381 0 1
o2
v40
v35
V382 0 1
o2
v41
v34
V383 0 1
o2
v42
v33
V384 0 1
o2
v43
v32
V385 0 1
o2
v44
v31
V386 0 1
o2
v45
v30
V387 0 1
o2
v46
v29
V388 0 1
o2
v47
v28
V389 0 1
o2
v48
v27
V390 0 1
o2
v49
v26
V391 0 1
o2
v50
v25
V392 0 1
o2
v40
v36
V393 0 1
o2
v41
v35
V394 0 1
o2
v42
v34
V395 0 1
o2
v43
v33
V396 0 1
o2
v44
v32
V397 0 1
o2
v45
v31
V398 0 1
o2
v46
v30
V399 0 1
o2
v47
v29
V400 0 1
o2
v48
v28
V401 0 1
o2
v49
v27
V402 0 1
o2
v50
v26
V403 0 1
o2
v40
v37
V404 0 1
o2
v41
v36
V405 0 1
o2
v42
v35
V406 0 1
o2
v43
v34
V407 0 1
o2
v44
v33
V408 0 1
o2
v45
v32
V409 0 1
o2
v46
v31
V410 0 1
o2
v47
v30
V411 0 1
o2
v48
v29
V412 0 1
o2
v49
v28
V413 0 1
o2
v50
v27
V414 0 1
o2
v40
v38
V415 0 1
o2
v41
v37
V416 0 1
o2
v42
v36
V417 0 1
o2
v43
v35
V418 0 1
o2
v44
v34
V419 0 1
o2
v45
v33
V420 0 1
o2
v46
v32
V421 0 1
o2
v47
v31
V422 0 1
o2
v48
v30
V423 0 1
o2
v49
v29
V424 0 1
o2
v50
v28
V425 0 1
o2
v40
v39
V426 0 1
o2
v41
v38
V427 0 1
o2
v42
v37
V428 0 1
o2
v43
v36
V429 0 1
o2
v44
v35
V430 0 1
o2
v45
v34
V431 0 1
o2
v46
v33
V432 0 1
o2
v47
v32
V433 0 1
o2
v48
v31
V434 0 1
o2
v49
v30
V435 0 1
o2
v50
v29
O0 0
o54
40
o5
v51
n2
o5
o0
v52
v53
n2
o5
o0
n-0.0016
o54
3
v54
v55
v56
n2
o5
o0
n-0.0054
o54
4
v57
v58
v59
v60
n2
o5
o0
n-0.0702
o54
5
v61
v62
v63
v64
v65
n2
o5
o0
n-0.1876
o54
6
v66
v67
v68
v69
v70
v71
n2
o5
o0
n-0.332
o54
7
v72
v73
v74
v75
v76
v77
v78
n2
o5
o0
n-0.764
o54
8
v79
v80
v81
v82
v83
v84
v85
v86
n2
o5
o0
n-0.932
o54
9
v87
v88
v89
v90
v91
v92
v93
v94
v95
n2
o5
o0
n-0.812
o54
10
v96
v97
v98
v99
v100
v101
v102
v103
v104
v105
n2
o5
o0
n-0.3464
o54
11
v106
v107
v108
v109
v110
v111
v112
v113
v114
v115
v116
n2
o5
o0
n-0.2064
o54
11
v117
v118
v119
v120
v121
v122
v123
v124
v125
v126
v127
n2
o5
o0
n-0.083
o54
11
v128
v129
v130
v131
v132
v133
v134
v135
v136
v137
v138
n2
o5
o0
n-0.034
o54
11
v139
v140
v141
v142
v143
v144
v145
v146
v147
v148
v149
n2
o5
o0
n-0.06179999
o54
11
v150
v151
v152
v153
v154
v155
v156
v157
v158
v159
v160
n2
o5
o0
n-1.2
o54
11
v161
v162
v163
v164
v165
v166
v167
v168
v169
v170
v171
n2
o5
o0
n-1.8
o54
11
v172
v173
v174
v175
v176
v177
v178
v179
v180
v181
v182
n2
o5
o0
n-2.4
o54
11
v183
v184
v185
v186
v187
v188
v189
v190
v191
v192
v193
n2
o5
o0
n-9
o54
11
v194
v195
v196
v197
v198
v199
v200
v201
v202
v203
v204
n2
o5
o0
n-2.4
o54
11
v205
v206
v207
v208
v209
v210
v211
v212
v213
v214
v215
n2
o5
o0
n-1.801
o54
11
v216
v217
v218
v219
v220
v221
v222
v223
v224
v225
v226
n2
o5
o0
n-1.325
o54
11
v227
v228
v229
v230
v231
v232
v233
v234
v235
v236
v237
n2
o5
o0
n-0.0762
o54
11
v238
v239
v240
v241
v242
v243
v244
v245
v246
v247
v248
n2
o5
o0
n-0.2104
o54
11
v249
v250
v251
v252
v253
v254
v255
v256
v257
v258
v259
n2
o5
o0
n-0.268
o54
11
v260
v261
v262
v263
v264
v265
v266
v267
v268
v269
v270
n2
o5
o0
n-0.552
o54
11
v271
v272
v273
v274
v275
v276
v277
v278
v279
v280
v281
n2
o5
o0
n-0.996
o54
11
v282
v283
v284
v285
v286
v287
v288
v289
v290
v291
v292
n2
o5
o0
n-0.36
o54
11
v293
v294
v295
v296
v297
v298
v299
v300
v301
v302
v303
n2
o5
o0
n-0.24
o54
11
v304
v305
v306
v307
v308
v309
v310
v311
v312
v313
v314
n2
o5
o0
n-0.151
o54
11
v315
v316
v317
v318
v319
v320
v321
v322
v323
v324
v325
n2
o5
o0
n-0.0248
o54
11
v326
v327
v328
v329
v330
v331
v332
v333
v334
v335
v336
n2
o5
o0
n-0.2432
o54
11
v337
v338
v339
v340
v341
v342
v343
v344
v345
v346
v347
n2
o5
o0
n-0.3602
o54
11
v348
v349
v350
v351
v352
v353
v354
v355
v356
v357
v358
n2
o5
o0
n-0.48
o54
11
v359
v360
v361
v362
v363
v364
v365
v366
v367
v368
v369
n2
o5
o0
n-1.8
o54
11
v370
v371
v372
v373
v374
v375
v376
v377
v378
v379
v380
n2
o5
o0
n-0.48
o54
11
v381
v382
v383
v384
v385
v386
v387
v388
v389
v390
v391
n2
o5
o0
n-0.36
o54
11
v392
v393
v394
v395
v396
v397
v398
v399
v400
v401
v402
n2
o5
o0
n-0.264
o54
11
v403
v404
v405
v406
v407
v408
v409
v410
v411
v412
v413
n2
o5
o0
n-0.006
o54
11
v414
v415
v416
v417
v418
v419
v420
v421
v422
v423
v424
n2
o5
o0
n-0.006
o54
11
v425
v426
v427
v428
v429
v430
v431
v432
v433
v434
v435
n2
k50
0
0
0
0
0
0
0
0
0
0
0
0
0
0
0
0
0
0
0
0
0
0
0
0
0
0
0
0
0
0
0
0
0
0
0
0
0
0
0
0
0
0
0
0
0
0
0
0
0
0
G0 51
0 0
1 0
2 0
3 0
4 0
5 0
6 0
7 0
8 0
9 0
10 0
11 0
12 0
13 0
14 0
15 0
16 0
17 0
18 0
19 0
20 0
21 0
22 0
23 0
24 0
25 0
26 0
27 0
28 0
29 0
30 0
31 0
32 0
33 0
34 0
35 0
36 0
37 0
38 0
39 0
40 0
41 0
42 0
43 0
44 0
45 0
46 0
47 0
48 0
49 0
50 0
